sat
(:max-memory         18.43
 :memory             18.33
 :nlsat-arith-var    4
 :nlsat-atoms        6
 :nlsat-bool-var     1
 :nlsat-clauses      6
 :nlsat-propagations 6
 :nlsat-stages       5
 :num-allocs         51014
 :rlimit-count       1409
 :time               0.00
 :total-time         0.01)
